unsat
(:max-memory         18.05
 :memory             17.95
 :nlsat-conflicts    8
 :nlsat-propagations 30
 :nlsat-stages       8
 :num-allocs         29999
 :rlimit-count       7071
 :time               0.00
 :total-time         0.01)
